100
100
3000 3000 3000 3000 3000 3000 3000 3000 3000 3000 3000 3000 3000 3000 3000 3000 3000 3000 3000 3000 3000 3000 3000 3000 3000 3000 3000 3000 3000 3000 3000 3000 3000 3000 3000 3000 3000 3000 3000 3000 3000 3000 3000 3000 3000 3000 3000 3000 3000 3000 3000 3000 3000 3000 3000 3000 3000 3000 3000 3000 3000 3000 3000 3000 3000 3000 3000 3000 3000 3000 3000 3000 3000 3000 3000 3000 3000 3000 3000 3000 3000 3000 3000 3000 3000 3000 3000 3000 3000 3000 3000 3000 3000 3000 3000 3000 3000 3000 3000 3000
0 1 0
0 7 3
0 13 1
0 21 1
0 27 1
0 32 4
0 39 0
0 40 1
0 62 3
0 79 4
1 1 2
1 13 0
1 62 2
1 68 4
1 69 3
1 70 0
1 74 2
1 87 3
1 95 2
1 96 3
2 0 2
2 3 3
2 18 0
2 19 3
2 20 1
2 26 0
2 46 1
2 65 4
2 79 1
2 81 4
3 12 4
3 18 2
3 29 1
3 45 0
3 74 3
3 78 0
3 81 3
3 82 3
3 83 1
3 86 2
4 4 0
4 13 1
4 23 1
4 24 1
4 32 4
4 40 2
4 47 4
4 85 3
4 88 2
4 91 0
5 9 1
5 23 2
5 36 2
5 45 2
5 47 0
5 50 1
5 55 3
5 57 2
5 68 2
5 77 1
6 17 2
6 18 4
6 24 1
6 27 3
6 35 3
6 39 2
6 64 2
6 67 4
6 78 3
6 86 3
7 23 3
7 35 4
7 36 1
7 41 1
7 56 0
7 66 1
7 69 0
7 79 3
7 86 1
7 87 2
8 16 4
8 76 2
8 83 1
8 86 4
8 87 4
8 91 2
8 96 1
8 97 2
8 98 2
8 99 4
9 1 1
9 38 2
9 43 1
9 44 0
9 50 4
9 59 4
9 85 0
9 87 0
9 90 0
9 95 4
10 13 3
10 22 0
10 32 3
10 33 1
10 60 1
10 86 3
10 89 3
10 93 0
10 94 0
10 97 4
11 4 4
11 8 3
11 25 2
11 32 4
11 39 1
11 44 1
11 52 3
11 59 0
11 64 0
11 75 4
12 6 2
12 11 3
12 22 4
12 31 2
12 32 4
12 63 4
12 85 3
12 88 3
12 98 0
12 99 3
13 1 2
13 2 2
13 3 1
13 27 0
13 37 0
13 61 0
13 63 2
13 74 2
13 80 1
13 87 0
14 3 0
14 11 3
14 12 4
14 13 1
14 20 2
14 32 3
14 43 3
14 51 1
14 52 4
14 53 4
15 9 4
15 11 4
15 12 0
15 21 1
15 23 2
15 36 4
15 66 2
15 79 0
15 84 3
15 92 0
16 12 2
16 19 4
16 25 3
16 28 1
16 29 4
16 30 4
16 54 4
16 55 4
16 68 1
16 76 2
17 8 0
17 10 2
17 11 3
17 17 4
17 25 2
17 35 3
17 37 4
17 62 4
17 67 3
17 75 2
18 3 0
18 23 4
18 28 1
18 34 0
18 38 4
18 52 3
18 58 3
18 80 2
18 84 4
18 92 1
19 0 0
19 7 0
19 19 4
19 23 4
19 33 2
19 38 1
19 57 2
19 58 3
19 60 3
19 67 0
20 37 3
20 39 4
20 40 2
20 42 3
20 45 3
20 61 1
20 64 2
20 68 4
20 82 4
20 96 4
21 12 3
21 14 1
21 27 2
21 34 4
21 38 1
21 44 1
21 71 2
21 78 0
21 84 0
21 86 3
22 12 3
22 22 1
22 26 4
22 66 0
22 70 2
22 74 1
22 80 3
22 82 0
22 88 3
22 90 4
23 6 0
23 8 1
23 9 3
23 46 2
23 47 1
23 56 0
23 61 3
23 67 0
23 70 4
23 74 2
24 2 1
24 3 2
24 29 3
24 31 4
24 49 1
24 50 3
24 57 3
24 94 4
24 95 0
24 98 0
25 7 1
25 10 2
25 15 3
25 22 3
25 24 3
25 42 4
25 58 1
25 66 0
25 67 1
25 72 1
26 18 4
26 22 0
26 36 2
26 51 3
26 58 2
26 59 0
26 67 1
26 75 3
26 77 0
26 78 0
27 2 3
27 4 0
27 6 1
27 7 1
27 10 0
27 11 0
27 17 4
27 35 3
27 41 2
27 48 0
28 1 2
28 5 2
28 18 3
28 41 1
28 43 2
28 64 4
28 65 2
28 68 4
28 72 0
28 73 1
29 20 3
29 27 2
29 31 3
29 33 0
29 47 2
29 70 2
29 86 0
29 87 4
29 91 2
29 93 0
30 1 3
30 17 0
30 32 4
30 34 2
30 43 2
30 47 3
30 61 3
30 65 2
30 77 1
30 91 3
31 14 3
31 20 0
31 26 3
31 37 1
31 38 0
31 54 4
31 63 3
31 75 2
31 78 3
31 83 4
32 0 4
32 2 0
32 4 4
32 28 2
32 29 4
32 34 2
32 35 1
32 49 2
32 70 3
32 72 3
33 6 1
33 48 1
33 69 4
33 73 0
33 75 2
33 77 2
33 78 1
33 82 0
33 85 2
33 89 0
34 9 4
34 16 4
34 54 3
34 58 0
34 83 0
34 91 3
34 96 0
34 97 3
34 98 4
34 99 4
35 16 2
35 25 0
35 31 2
35 45 0
35 57 3
35 60 1
35 65 0
35 68 4
35 74 1
35 79 3
36 16 3
36 19 4
36 24 1
36 49 2
36 53 2
36 56 4
36 63 3
36 70 2
36 78 1
36 84 0
37 35 4
37 45 4
37 59 0
37 65 0
37 72 3
37 73 4
37 78 0
37 89 1
37 97 1
37 99 4
38 23 2
38 25 3
38 41 4
38 49 1
38 50 0
38 63 0
38 73 0
38 81 0
38 88 1
38 93 4
39 38 0
39 71 1
39 73 2
39 77 4
39 79 0
39 91 4
39 92 0
39 93 4
39 96 3
39 97 2
40 1 3
40 3 0
40 8 2
40 20 0
40 21 4
40 29 0
40 30 3
40 45 3
40 47 4
40 58 4
41 10 4
41 22 3
41 48 1
41 61 4
41 64 0
41 73 0
41 74 0
41 81 3
41 84 4
41 90 2
42 6 0
42 14 1
42 17 4
42 26 4
42 30 3
42 46 1
42 49 0
42 52 3
42 57 1
42 76 4
43 9 0
43 30 2
43 55 4
43 59 0
43 63 3
43 79 2
43 84 0
43 85 0
43 88 1
43 89 0
44 22 3
44 31 3
44 55 1
44 62 4
44 63 0
44 65 0
44 68 2
44 69 2
44 72 1
44 86 2
45 6 4
45 8 4
45 26 0
45 43 4
45 58 0
45 59 3
45 62 3
45 87 4
45 89 2
45 93 3
46 9 1
46 38 0
46 48 1
46 53 0
46 71 1
46 73 1
46 74 1
46 78 4
46 94 3
46 95 1
47 7 2
47 24 3
47 27 4
47 28 2
47 39 2
47 47 3
47 49 3
47 53 3
47 64 0
47 69 1
48 50 3
48 82 1
48 87 2
48 93 4
48 94 3
48 95 2
48 96 2
48 97 2
48 98 2
48 99 1
49 16 4
49 19 4
49 26 3
49 29 2
49 35 1
49 41 4
49 42 2
49 46 4
49 48 3
49 56 2
50 3 0
50 6 1
50 51 1
50 52 2
50 54 1
50 80 0
50 88 2
50 89 3
50 92 2
50 93 1
51 0 0
51 5 0
51 15 1
51 47 2
51 56 3
51 59 1
51 83 1
51 92 2
51 98 3
51 99 4
52 2 0
52 10 0
52 14 0
52 17 2
52 46 1
52 52 0
52 54 4
52 58 3
52 70 1
52 81 2
53 5 0
53 12 0
53 33 3
53 37 3
53 38 1
53 50 2
53 55 0
53 61 2
53 62 2
53 76 2
54 15 1
54 20 4
54 27 1
54 28 4
54 29 0
54 31 0
54 37 0
54 46 1
54 52 0
54 54 1
55 16 4
55 39 0
55 52 4
55 68 4
55 72 2
55 84 1
55 87 4
55 90 0
55 92 3
55 95 1
56 5 1
56 11 0
56 16 2
56 32 4
56 40 4
56 44 1
56 49 3
56 53 1
56 85 3
56 88 4
57 8 4
57 16 2
57 41 1
57 45 3
57 52 3
57 56 4
57 61 1
57 62 0
57 66 0
57 75 0
58 25 4
58 27 0
58 46 3
58 54 1
58 59 4
58 71 0
58 76 4
58 79 2
58 83 2
58 85 3
59 9 4
59 22 2
59 37 2
59 48 4
59 51 0
59 56 4
59 58 4
59 71 4
59 80 2
59 84 1
60 8 2
60 21 0
60 27 0
60 32 2
60 36 1
60 41 1
60 47 1
60 66 1
60 69 4
60 72 3
61 18 4
61 22 3
61 24 3
61 33 3
61 35 2
61 40 1
61 43 3
61 44 2
61 53 3
61 69 0
62 4 4
62 17 3
62 28 2
62 30 3
62 34 4
62 36 1
62 37 3
62 41 1
62 67 1
62 80 0
63 11 1
63 33 0
63 59 3
63 77 4
63 82 1
63 92 3
63 93 1
63 96 4
63 97 0
63 98 0
64 0 3
64 12 4
64 15 4
64 17 3
64 39 3
64 51 3
64 55 3
64 75 2
64 82 3
64 86 2
65 0 0
65 2 0
65 13 0
65 20 1
65 25 4
65 32 4
65 39 2
65 44 2
65 53 4
65 60 2
66 10 4
66 11 0
66 37 2
66 51 2
66 55 1
66 63 4
66 66 3
66 76 3
66 82 1
66 84 1
67 8 4
67 13 4
67 20 0
67 46 1
67 48 4
67 61 4
67 62 2
67 70 3
67 76 1
67 80 4
68 2 0
68 13 0
68 14 1
68 19 0
68 24 4
68 30 0
68 45 2
68 64 0
68 65 1
68 90 0
69 4 4
69 41 0
69 55 2
69 56 3
69 58 0
69 60 0
69 67 0
69 74 0
69 75 2
69 84 1
70 28 1
70 30 4
70 31 4
70 33 0
70 55 4
70 57 2
70 59 0
70 62 2
70 68 2
70 72 4
71 3 1
71 9 4
71 14 0
71 21 1
71 30 0
71 49 4
71 53 2
71 57 1
71 60 3
71 66 4
72 1 0
72 12 1
72 31 2
72 54 2
72 65 2
72 73 2
72 75 3
72 91 1
72 94 4
72 95 0
73 2 4
73 7 4
73 11 2
73 14 0
73 15 0
73 17 3
73 29 0
73 36 4
73 40 0
73 42 0
74 1 2
74 6 2
74 19 2
74 23 4
74 25 0
74 30 4
74 34 0
74 51 2
74 64 1
74 66 4
75 5 2
75 9 3
75 46 1
75 49 2
75 57 0
75 61 3
75 81 4
75 86 2
75 88 2
75 94 1
76 2 1
76 7 1
76 23 3
76 28 0
76 43 4
76 44 1
76 54 3
76 57 3
76 64 4
76 67 2
77 0 4
77 16 3
77 21 4
77 22 3
77 28 3
77 33 1
77 40 2
77 42 1
77 70 4
77 73 3
78 8 1
78 10 3
78 14 2
78 21 1
78 30 3
78 36 0
78 50 2
78 51 3
78 71 3
78 81 2
79 2 2
79 4 0
79 5 0
79 14 0
79 43 3
79 44 0
79 45 4
79 48 1
79 56 2
79 67 0
80 4 2
80 18 2
80 25 0
80 34 4
80 36 4
80 60 0
80 68 4
80 82 0
80 83 1
80 90 1
81 41 4
81 42 0
81 50 3
81 69 2
81 71 0
81 72 1
81 79 1
81 83 3
81 89 3
81 90 2
82 0 4
82 5 1
82 10 4
82 18 1
82 20 4
82 38 2
82 81 1
82 87 2
82 92 2
82 99 1
83 3 1
83 7 2
83 24 0
83 35 1
83 44 2
83 46 4
83 50 2
83 60 4
83 75 0
83 80 3
84 11 0
84 55 4
84 66 2
84 80 2
84 89 1
84 90 4
84 91 2
84 97 0
84 98 2
84 99 2
85 4 0
85 8 4
85 15 0
85 26 3
85 29 4
85 85 1
85 88 0
85 92 4
85 93 3
85 94 2
86 0 0
86 5 1
86 7 4
86 33 0
86 36 3
86 43 1
86 45 3
86 53 3
86 57 4
86 61 2
87 1 3
87 10 2
87 13 2
87 19 2
87 21 3
87 26 4
87 31 4
87 51 4
87 62 3
87 85 2
88 18 2
88 33 1
88 42 4
88 51 3
88 76 2
88 81 4
88 82 0
88 83 4
88 91 1
88 94 2
89 0 2
89 9 4
89 29 4
89 38 2
89 42 0
89 73 2
89 89 2
89 90 3
89 91 2
89 96 3
90 3 3
90 4 1
90 6 4
90 15 2
90 16 1
90 39 4
90 74 1
90 81 2
90 92 2
90 97 3
91 15 2
91 21 3
91 42 3
91 54 0
91 63 0
91 71 2
91 76 2
91 77 3
91 78 0
91 95 1
92 10 3
92 18 0
92 40 4
92 48 1
92 64 1
92 65 2
92 69 4
92 71 1
92 77 0
92 80 4
93 5 4
93 13 4
93 24 2
93 26 0
93 28 1
93 37 0
93 47 4
93 50 0
93 56 1
93 60 0
94 5 3
94 34 1
94 40 3
94 65 2
94 72 1
94 79 0
94 83 0
94 85 3
94 94 2
94 96 2
95 15 3
95 17 1
95 89 1
95 93 3
95 94 0
95 95 2
95 96 2
95 97 4
95 98 3
95 99 2
96 6 3
96 7 4
96 14 3
96 19 0
96 24 3
96 25 0
96 27 4
96 49 3
96 52 0
96 53 3
97 19 1
97 23 0
97 31 0
97 34 0
97 39 4
97 43 0
97 44 1
97 60 3
97 76 1
97 77 3
98 12 1
98 15 2
98 21 1
98 26 3
98 35 1
98 40 2
98 42 0
98 63 4
98 69 2
98 71 2
99 20 1
99 34 4
99 48 4
99 70 1
99 77 4
99 88 4
99 90 2
99 95 0
99 98 3
99 99 0
